c nIsolatedPIs 48
c maxPI 16
p cnf 45 88
c gate 17 4 12 0
4 -17 0
12 -17 0
-4 -12 17 0
c gate 18 -3 -11 0
-3 -18 0
-11 -18 0
3 11 18 0
c gate 19 -4 -12 0
-4 -19 0
-12 -19 0
4 12 19 0
c gate 20 -18 -19 0
-18 -20 0
-19 -20 0
18 19 20 0
c gate 21 -2 -10 0
-2 -21 0
-10 -21 0
2 10 21 0
c gate 22 1 9 0
1 -22 0
9 -22 0
-1 -9 22 0
c gate 23 -21 22 0
-21 -23 0
22 -23 0
21 -22 23 0
c gate 24 3 11 0
3 -24 0
11 -24 0
-3 -11 24 0
c gate 25 2 10 0
2 -25 0
10 -25 0
-2 -10 25 0
c gate 26 -24 -25 0
-24 -26 0
-25 -26 0
24 25 26 0
c gate 27 -23 26 0
-23 -27 0
26 -27 0
23 -26 27 0
c gate 28 20 -27 0
20 -28 0
-27 -28 0
-20 27 28 0
c gate 29 -17 -28 0
-17 -29 0
-28 -29 0
17 28 29 0
c gate 30 6 14 0
6 -30 0
14 -30 0
-6 -14 30 0
c gate 31 5 13 0
5 -31 0
13 -31 0
-5 -13 31 0
c gate 32 -30 -31 0
-30 -32 0
-31 -32 0
30 31 32 0
c gate 33 -8 -16 0
-8 -33 0
-16 -33 0
8 16 33 0
c gate 34 -5 -13 0
-5 -34 0
-13 -34 0
5 13 34 0
c gate 35 -33 -34 0
-33 -35 0
-34 -35 0
33 34 35 0
c gate 36 32 35 0
32 -36 0
35 -36 0
-32 -35 36 0
c gate 37 8 16 0
8 -37 0
16 -37 0
-8 -16 37 0
c gate 38 7 15 0
7 -38 0
15 -38 0
-7 -15 38 0
c gate 39 -37 -38 0
-37 -39 0
-38 -39 0
37 38 39 0
c gate 40 -7 -15 0
-7 -40 0
-15 -40 0
7 15 40 0
c gate 41 -6 -14 0
-6 -41 0
-14 -41 0
6 14 41 0
c gate 42 -40 -41 0
-40 -42 0
-41 -42 0
40 41 42 0
c gate 43 39 42 0
39 -43 0
42 -43 0
-39 -42 43 0
c gate 44 36 43 0
36 -44 0
43 -44 0
-36 -43 44 0
c gate 45 -29 44 0
-29 -45 0
44 -45 0
29 -44 45 0
c PO
45 0
